
  12   12
  10   10   10   10   10   10   10   10   10   10   10   10

   0   0   0   0   0   0   0   0   0   0   0   0   0   5 2 3 4 5 6 
   8   0   0   0   0   0   0   0   0   1   0   0   0   4 11 9 8 7 
   8   0   0   1   0   0   0   0   0   0   0   1   0   3 10 9 7 
   4   0   0   0   0   1   0   1   0   0   0   0   0   3 10 9 7 
   8   1   5   0   0   7   1   0   0   6   0   0   0   2 8 7 
   2   0   0   0   1   0   0   8   0   0   1   0   0   1 8 
  10   0   0   8   0   7   9   6   0   0   5   0   0   1 12
  10   0   0   6   7   5   0   0   1   7   0   9   0   1 12
   4   7   0   0   0   0   0   0   0   0   6   0   0   1 12
   4   7   0   5   8   0   0   0   8   6   0   0   0   1 12
   1   0   0   0   4   0   0   0   6   0   8   0   5   1 12
   0   0   0   0   0   0   0   0   0   0   0   0   0   0 
